Route #1: 21 22 15 11 23 28 33 43 38 34 29 35 36 44 50 51 39 30 18 17 25 24 16 13 12 1 2 3 7 8 4 14 9 5 6 10 20 19 27 26 31 40 45 52 46 65 66 71 80 87 100 92 79 70 56 55 64 69 78 86 99 98 85 77 63 62 61 49 48 54 67 74 60 75 68 76 84 97 91 96 90 89 83 95 94 88 82 73 59 53 42 41 32 37 47 58 57 72 81 93
Cost 47212
